(set-info :status unsat)
(declare-codatatypes ((T 0)) ((
  (f0)
  (f1 (proj0f1 T) (proj1f1 T))
  (f2 (proj0f2 T) (proj1f2 T) (proj2f2 T) (proj3f2 T)))))
(assert (exists ((y12077 T) (y12076 T) (y12039 T) (y12038 T) (y12073 T) (y12071 T) (y12070 T) (y12033 T) (y12030 T) (y12037 T) (y12036 T) (y12035 T) (y12034 T) (y12046 T) (y12074 T) (y12059 T) (y12061 T) (y12055 T) (y12054 T) (y12057 T) (y12056 T) (y12044 T) (y12053 T) (y12052 T) (y12064 T) (y12050 T) (y12075 T) (y12078 T) (y12067 T) (y12065 T) (y12028 T) (y12029 T) (y12024 T) (y12025 T) (y12026 T) (y12027 T) (y12020 T) (y12021 T) (y12022 T) (y12023 T) (y12068 T) (y12069 T) (y12079 T) (y12048 T) (y12049 T) (y12060 T) (y12047 T) (y12062 T) (y12063 T) (y12042 T) (y12043 T) (y12040 T) (y12041 T) (y12082 T) (y12083 T) (y12080 T) (y12081 T) (y12084 T) (y12085 T)) (forall ((x12086 T) (x12089 T) (x12088 T) (x12087 T) (x12095 T) (x12092 T) (x12093 T) (x12090 T) (x12091 T) (x12094 T)) 
  (or 
    (and (= y12020 (f1 (f1 y12022 (f1 x12095 x12095)) x12095)) (= y12022 x12087) (= y12023 (f1 y12024 x12095)) (= y12024 (f2 y12020 x12095 x12095 x12095)) (= y12021 (f1 y12025 x12095)) (= y12025 (f1 y12026 (f1 x12095 x12095))) (= y12026 (f2 y12027 (f1 (f2 x12095 x12095 x12095 x12095) (f2 x12095 x12095 x12095 x12095)) x12095 (f2 x12095 x12095 x12095 x12095))) (= y12027 (f1 y12028 x12095)) (= y12028 (f2 y12021 x12095 x12095 x12095)) (distinct y12020 y12021)) 
    (and (= y12029 (f1 x12091 (f2 x12095 x12095 x12095 x12095))) (= x12091 (f2 y12029 x12095 x12095 x12095)) (= y12030 (f1 x12086 (f2 x12095 x12095 x12095 x12095))) (= x12086 (f2 y12030 x12095 x12095 x12095)) (distinct y12029 y12030)) 
    (and (= y12033 (f2 y12035 x12095 (f1 (f2 x12095 x12095 x12095 x12095) (f2 x12095 x12095 x12095 x12095)) x12095)) (= y12035 (f1 y12036 (f1 x12095 x12095))) (= y12036 (f1 y12037 (f1 x12095 (f2 x12095 x12095 x12095 x12095)))) (= y12037 (f1 y12038 x12095)) (= y12038 (f2 y12033 y12033 x12095 x12095)) (= y12034 (f2 (f1 y12039 (f1 x12095 x12095)) x12095 (f1 (f2 x12095 x12095 x12095 x12095) (f2 x12095 x12095 x12095 x12095)) x12095)) (= y12039 (f1 y12040 (f1 x12095 (f2 x12095 x12095 x12095 x12095)))) (= y12040 (f1 y12041 x12095)) (= y12041 (f2 y12034 y12034 x12095 x12095)) (distinct y12033 y12034)) 
    (and (= y12042 (f2 y12042 (f2 (f1 x12095 (f2 x12095 x12095 x12095 x12095)) (f1 (f1 x12095 x12095) x12095) x12095 (f2 (f2 x12095 x12095 x12095 x12095) x12095 (f2 x12095 x12095 x12095 x12095) (f1 x12095 x12095))) y12044 (f2 x12095 (f2 x12095 x12095 x12095 x12095) (f1 x12095 x12095) x12095))) (= y12044 (f1 x12088 (f2 x12095 x12095 x12095 x12095))) (= x12088 (f2 y12046 x12095 (f2 x12095 x12095 x12095 x12095) x12095)) (= y12046 (f1 y12042 x12095)) (= y12043 (f2 y12043 (f2 (f1 x12095 (f2 x12095 x12095 x12095 x12095)) (f1 (f1 x12095 x12095) x12095) x12095 (f2 (f2 x12095 x12095 x12095 x12095) x12095 (f2 x12095 x12095 x12095 x12095) (f1 x12095 x12095))) (f1 (f2 (f1 y12043 x12095) x12095 (f2 x12095 x12095 x12095 x12095) x12095) (f2 x12095 x12095 x12095 x12095)) (f2 x12095 (f2 x12095 x12095 x12095 x12095) (f1 x12095 x12095) x12095))) (distinct y12042 y12043)) 
    (and (= y12047 (f1 (f1 y12049 (f2 (f1 x12095 x12095) (f2 x12095 x12095 x12095 x12095) x12095 (f1 x12095 x12095))) (f2 x12095 x12095 x12095 x12095))) (= y12049 (f1 y12050 x12095)) (= y12050 (f1 x12090 (f2 x12095 x12095 x12095 x12095))) (= x12090 (f1 y12047 x12095)) (= y12048 (f1 y12052 (f2 x12095 x12095 x12095 x12095))) (= y12052 (f1 y12053 (f2 (f1 x12095 x12095) (f2 x12095 x12095 x12095 x12095) x12095 (f1 x12095 x12095)))) (= y12053 (f1 y12054 x12095)) (= y12054 (f1 y12055 (f2 x12095 x12095 x12095 x12095))) (= y12055 (f1 y12048 x12095)) (distinct y12047 y12048)) 
    (and (= y12056 (f1 x12094 (f1 (f1 x12095 x12095) (f1 x12095 x12095)))) (= x12094 (f1 y12059 (f1 (f1 (f1 x12095 x12095) (f1 x12095 x12095)) (f1 (f2 x12095 x12095 x12095 x12095) (f2 x12095 x12095 x12095 x12095))))) (= y12059 (f2 y12060 (f2 x12095 x12095 x12095 x12095) (f2 x12095 x12095 x12095 x12095) (f2 (f2 x12095 x12095 x12095 x12095) (f2 x12095 x12095 x12095 x12095) (f1 x12095 x12095) (f1 x12095 x12095)))) (= y12060 (f1 y12061 x12095)) (= y12061 (f2 y12056 x12095 x12095 x12095)) (= y12057 (f1 y12062 (f1 (f1 x12095 x12095) (f1 x12095 x12095)))) (= y12062 (f1 y12063 (f1 (f1 (f1 x12095 x12095) (f1 x12095 x12095)) (f1 (f2 x12095 x12095 x12095 x12095) (f2 x12095 x12095 x12095 x12095))))) (= y12063 (f2 y12064 (f2 x12095 x12095 x12095 x12095) (f2 x12095 x12095 x12095 x12095) (f2 (f2 x12095 x12095 x12095 x12095) (f2 x12095 x12095 x12095 x12095) (f1 x12095 x12095) (f1 x12095 x12095)))) (= y12064 (f1 y12065 x12095)) (= y12065 (f2 y12057 x12095 x12095 x12095)) (distinct y12056 y12057)) 
    (and (= x12089 (f1 y12068 (f1 (f1 (f1 x12095 x12095) (f2 x12095 x12095 x12095 x12095)) (f1 x12095 x12095)))) (= y12068 (f2 (f1 (f1 x12089 x12095) (f1 x12095 x12095)) (f1 x12095 x12095) y12069 x12095)) (= y12069 (f1 y12070 x12095)) (= y12070 (f2 x12089 x12095 x12095 x12095)) (= y12067 (f1 y12071 (f1 (f1 (f1 x12095 x12095) (f2 x12095 x12095 x12095 x12095)) (f1 x12095 x12095)))) (= y12071 x12093) (= x12092 (f1 y12073 x12095)) (= y12073 (f2 y12067 x12095 x12095 x12095)) (distinct x12089 y12067)) 
    (and (= y12074 (f1 y12074 x12095)) (= y12075 (f1 y12075 x12095)) (distinct y12074 y12075)) 
    (and (= y12076 (f2 y12078 (f2 y12076 x12095 x12095 x12095) (f2 (f1 (f1 x12095 x12095) x12095) (f2 (f2 x12095 x12095 x12095 x12095) x12095 x12095 (f1 x12095 x12095)) (f1 (f1 (f2 x12095 x12095 x12095 x12095) (f2 x12095 x12095 x12095 x12095)) (f2 (f2 x12095 x12095 x12095 x12095) (f1 x12095 x12095) (f2 x12095 x12095 x12095 x12095) (f2 x12095 x12095 x12095 x12095))) (f2 x12095 x12095 x12095 x12095)) (f1 (f1 x12095 (f2 x12095 x12095 x12095 x12095)) (f2 x12095 x12095 (f1 x12095 x12095) (f1 x12095 x12095))))) (= y12078 (f2 (f1 (f2 (f1 y12076 x12095) x12095 x12095 (f1 x12095 x12095)) (f2 x12095 x12095 x12095 x12095)) (f1 x12095 x12095) y12079 (f2 x12095 (f2 x12095 x12095 x12095 x12095) x12095 (f1 x12095 x12095)))) (= y12079 (f2 y12080 (f2 (f1 x12095 x12095) (f1 x12095 x12095) x12095 x12095) (f1 (f1 x12095 x12095) (f2 x12095 x12095 x12095 x12095)) (f1 x12095 (f1 x12095 x12095)))) (= y12080 (f2 y12081 x12095 x12095 (f2 x12095 x12095 x12095 x12095))) (= y12081 (f1 y12076 x12095)) (= y12077 (f2 y12082 (f2 y12077 x12095 x12095 x12095) (f2 (f1 (f1 x12095 x12095) x12095) (f2 (f2 x12095 x12095 x12095 x12095) x12095 x12095 (f1 x12095 x12095)) (f1 (f1 (f2 x12095 x12095 x12095 x12095) (f2 x12095 x12095 x12095 x12095)) (f2 (f2 x12095 x12095 x12095 x12095) (f1 x12095 x12095) (f2 x12095 x12095 x12095 x12095) (f2 x12095 x12095 x12095 x12095))) (f2 x12095 x12095 x12095 x12095)) (f1 (f1 x12095 (f2 x12095 x12095 x12095 x12095)) (f2 x12095 x12095 (f1 x12095 x12095) (f1 x12095 x12095))))) (= y12082 (f2 (f1 (f2 (f1 y12077 x12095) x12095 x12095 (f1 x12095 x12095)) (f2 x12095 x12095 x12095 x12095)) (f1 x12095 x12095) y12083 (f2 x12095 (f2 x12095 x12095 x12095 x12095) x12095 (f1 x12095 x12095)))) (= y12083 (f2 y12084 (f2 (f1 x12095 x12095) (f1 x12095 x12095) x12095 x12095) (f1 (f1 x12095 x12095) (f2 x12095 x12095 x12095 x12095)) (f1 x12095 (f1 x12095 x12095)))) (= y12084 (f2 y12085 x12095 x12095 (f2 x12095 x12095 x12095 x12095))) (= y12085 (f1 y12077 x12095)) (distinct y12076 y12077))))))
(check-sat)
